9619
1 1 0 1 0 1 1 0 0 0 1 0 1 1 1 1 0 0 1 1 
1 13 15 10 12 12 1 5 15 1 5 14 13 18 6 13 12 12 5 15 14 0 10 14 14 14 1 14 19 15 1 15 15 19 15 5 13 18 10 14 0 13 6 13 5 5 5 5 5 15 15 1 14 14 14 0 0 13 13 12 13 5 1 5 15 15 10 3 1 1 15 0 0 0 10 15 15 15 19 14 15 5 12 12 18 18 6 1 12 1 13 12 13 13 13 12 13 13 12 13 